benchmark_num_str/p1_6_10-3.dzn
Alphabet = {A,C,G,T};
ns = 6;
nc = 10;
sl = 10;
neighbours = [| I(G),I(A),I(C),I(A),I(C),I(A),I(A),I(A),I(C),I(C) | I(A),I(C),I(A),I(C),I(C),I(C),I(A),I(A),I(A),I(A) | I(A),I(T),I(A),I(A),I(C),I(A),I(C),I(A),I(A),I(A) | I(C),I(G),I(C),I(A),I(A),I(C),I(A),I(A),I(A),I(A) | I(C),I(C),I(A),I(A),I(C),I(A),I(A),I(C),I(C),I(A) | I(A),I(G),I(A),I(A),I(A),I(C),I(A),I(A),I(C),I(C) |];
