benchmark_num_str/p1_6_10-3.txt
{
	"num_strings": 6,
	"alphabet": "ACGT",
	"strings": [
		"GACACAAACC",
		"ACACCCAAAA",
		"ATAACACAAA",
		"CGCAACAAAA",
		"CCAACAACCA",
		"AGAAACAACC"
	],
	"str_length":[10,10,10,10,10,10]
}